TOUR_SECTION
1
109
189
110
20
35
126
95
91
14
148
88
146
156
6
70
122
47
201
144
96
194
4
199
37
184
5
142
181
68
84
69
32
105
53
61
77
44
134
120
64
42
54
154
107
38
45
131
174
119
117
176
40
80
50
169
175
57
83
106
43
16
152
7
51
150
103
133
149
41
193
100
3
130
92
102
158
81
197
66
39
159
139
62
121
180
187
113
127
10
192
79
78
82
195
147
24
75
86
138
22
125
49
87
145
129
73
141
76
28
101
185
63
115
177
135
67
99
30
128
166
72
27
153
168
140
15
163
36
12
200
60
21
124
190
172
160
161
52
71
165
183
173
178
191
29
108
186
93
188
25
164
97
89
65
26
111
170
182
114
179
90
58
171
155
33
13
196
136
104
74
85
162
31
157
46
167
198
11
2
94
116
9
132
19
123
112
98
34
18
118
23
56
151
137
55
8
48
17
143
59
-1
EOF